(declare-fun e () String)
(declare-fun c () String)
(declare-fun g () String)
(declare-fun b () String)
(declare-fun d () String)
(declare-fun a () String)
(declare-fun h () String)
(assert (= (str.++ g "ha" d g "a") (str.++ a "fa")))
(assert (= (str.++ "a" h e "b") (str.++ b "gb")))
(assert (= (str.++ "g" b) (str.++ c "adhg" e)))

(check-sat)
